
===== New CPLEX run =====
Instance: /home/yorig/tuner/mpils-tests/instances/miplib/easy/lotsize.mps
Config: /scratch/yorig/mpils-results-grid-seconds-5-no-mip-start/easy/16proc/seed-3/4_lotsize_seed-3_20260502_223218/expansion/config_param_CPXPARAM_MIP_Strategy_Branch_1_iter_1.prm
========================

Selected objective sense:  MINIMIZE
Selected objective  name:  R1921
Selected RHS        name:  B
Selected bound      name:  BOUND
Version identifier: 22.1.2.0 | 2024-11-26 | 0edbb82fd
CPXPARAM_Threads                                 8
CPXPARAM_Parallel                                1
CPXPARAM_MIP_Strategy_Branch                     1
CPXPARAM_MIP_Cuts_Cliques                        2
CPXPARAM_MIP_Cuts_FlowCovers                     2
CPXPARAM_MIP_Cuts_Implied                        1
CPXPARAM_MIP_Limits_GomoryCand                   800
CPXPARAM_MIP_Cuts_Gomory                         -1
CPXPARAM_MIP_Cuts_PathCut                        1
CPXPARAM_MIP_Cuts_MIRCut                         2
CPXPARAM_MIP_Cuts_Disjunctive                    2
CPXPARAM_Emphasis_MIP                            1
CPXPARAM_TimeLimit                               5
Tried aggregator 1 time.
MIP Presolve eliminated 595 rows and 0 columns.
MIP Presolve added 1190 rows and 0 columns.
MIP Presolve modified 10 coefficients.
Reduced MIP has 2515 rows, 2985 columns, and 7755 nonzeros.
Reduced MIP has 1195 binaries, 0 generals, 0 SOSs, and 0 indicators.
Presolve time = 0.00 sec. (4.53 ticks)
Probing fixed 0 vars, tightened 5487 bounds.
Probing time = 0.01 sec. (18.38 ticks)
Tried aggregator 2 times.
Detecting symmetries...
MIP Presolve modified 1206 coefficients.
Aggregator did 10 substitutions.
Reduced MIP has 2505 rows, 2975 columns, and 7735 nonzeros.
Reduced MIP has 1195 binaries, 0 generals, 0 SOSs, and 0 indicators.
Presolve time = 0.00 sec. (6.66 ticks)
Probing fixed 0 vars, tightened 2401 bounds.
Probing time = 0.00 sec. (6.41 ticks)
Clique table members: 190.
MIP emphasis: integer feasibility.
MIP search method: dynamic search.
Parallel mode: deterministic, using up to 8 threads.
Root relaxation solution time = 0.01 sec. (9.71 ticks)

        Nodes                                         Cuts/
   Node  Left     Objective  IInf  Best Integer    Best Bound    ItCnt     Gap

      0     0   348385.3466   472                 348385.3466      882         
      0     0   583577.4049   435                   Cuts: 726     1819         
      0     0   818290.4051   692                   Cuts: 726     2653         
*     0+    0                       1.01740e+07   818290.4051            91.96%
*     0+    0                      7973370.0000   818290.4051            89.74%
      0     0   947113.9594   686  7973370.0000     Cuts: 726     3332   88.12%
Detecting symmetries...
      0     2   947113.9594   686  7973370.0000   949700.7247     3332   88.09%
Elapsed time = 0.41 sec. (613.28 ticks, tree = 0.02 MB, solutions = 2)
    538   392  1341693.6950   334  7973370.0000   949700.7247    12985   88.09%
*   718+  524                      2884216.0000   949700.7247            67.07%
    900   655  2466951.7314   107  2884216.0000   949700.7247    25727   67.07%
   1522  1113  2669405.5628   147  2884216.0000   950316.9362    42031   67.05%
*  1738+ 1239                      2185794.0000   950316.9362            56.52%
*  1759+ 1239                      1978888.0000   950316.9362            51.98%
*  1760+ 1239                      1974148.0000   950316.9362            51.86%
   1760  1241  1123483.1655   656  1974148.0000   950316.9362    45990   51.86%
   1917  1202  1891195.1406   251  1974148.0000   950316.9362    58960   51.86%
   2411  1630  1449136.3859   417  1974148.0000   950316.9362    74500   51.86%
   2712  1883  1343020.8817   556  1974148.0000   950316.9362    86205   51.86%
   3139  2233  1828744.6534   301  1974148.0000   950316.9362   103605   51.86%

Performing restart 1

Repeating presolve.
Tried aggregator 1 time.
MIP Presolve modified 1238 coefficients.
Reduced MIP has 2505 rows, 2975 columns, and 7735 nonzeros.
Reduced MIP has 1195 binaries, 0 generals, 0 SOSs, and 0 indicators.
Presolve time = 0.00 sec. (3.85 ticks)
Tried aggregator 1 time.
MIP Presolve modified 1019 coefficients.
Reduced MIP has 2505 rows, 2975 columns, and 7735 nonzeros.
Reduced MIP has 1195 binaries, 0 generals, 0 SOSs, and 0 indicators.
Presolve time = 0.00 sec. (5.12 ticks)
Represolve time = 0.02 sec. (22.07 ticks)
   3376     0  1120209.6108   770  1974148.0000     Cuts: 726   119600   43.26%
   3376     0  1203196.4264   732  1974148.0000     Cuts: 726   120365   39.05%
   3376     0  1261517.3575   720  1974148.0000     Cuts: 726   121050   36.10%
   3376     2  1261517.3575   720  1974148.0000  1261517.3575   121050   36.10%
   3468     8  1278142.9824   691  1974148.0000  1261553.9685   121428   36.10%
Elapsed time = 4.18 sec. (5664.70 ticks, tree = 0.02 MB, solutions = 27)
*  3575+  116                      1708041.0000  1262251.9314            26.10%
   3609   156  1397146.2606   662  1708041.0000  1262251.9314   145340   26.10%

Clique cuts applied:  1
Cover cuts applied:  25
Implied bound cuts applied:  12
Flow cuts applied:  836
Mixed integer rounding cuts applied:  1184
Flow path cuts applied:  60
Multi commodity flow cuts applied:  21
Lift and project cuts applied:  23
Disjunctive cuts applied:  0
Cone linearizations applied:  0

Root node processing (before b&c):
  Real time             =    0.41 sec. (611.37 ticks)
Parallel b&c, 8 threads:
  Real time             =    4.60 sec. (6410.25 ticks)
  Sync time (average)   =    0.32 sec.
  Wait time (average)   =    0.01 sec.
                          ------------
Total (root+branch&cut) =    5.01 sec. (7021.63 ticks)
Gap: 26.1%
Upper bound: 1.70804e+06
Lower bound: 1.26225e+06
End of CPLEX run. Time: 5.00776 seconds
